# one way to input the data in AMPL format
# for indexed parameters, the indexes are given before the value

set I := 1 ;
set J := 1 2 ;

param a :=
1 1 30
1 2 -45
;

param c:=
1 2
2 -3
;

param b := 1 10 ;
